min: custoArestas;

//CUSTO DE TODAS AS ARESTAS
custoArestas = 7  a01_07 + 2  a01_12 +
               6  a02_07 + 16 a02_12 +
               11 a03_02 + 6  a03_07 + 6  a03_10 + 3  a03_12 +
               6  a04_01 + 14 a04_02 + 8  a04_06 + 8  a04_07 + 11 a04_10 + 5  a04_12 +
               5  a06_07 + 12 a06_12 +
               10 a07_12 +
               5  a08_01 + 11 a08_02 + 0  a08_03 + 10 a08_06 + 10 a08_07 + 6  a08_10 + 10 a08_12 +
               0  a09_01 + 13 a09_02 + 5  a09_03 + 10 a09_06 + 7  a09_07 + 5  a09_08 + 7  a09_10 + 10 a09_12 +
               4  a10_02 + 5  a10_07 + 11 a10_12 +
               1  a11_01 + 15 a11_02 + 2  a11_03 + 4  a11_04 + 11 a11_06 + 9  a11_07 + 9  a11_08 + 9  a11_09 + 10 a11_10;


//------------------RESTRICOES DO GRAFO/FLUXO----------------------
v01Entrada = a04_01 + a08_01 + a09_01 + a11_01;
v01Saida   = a01_07 + a01_12;
v01Entrada = v01Saida;
v01Entrada >= 1;


v02Entrada = a04_02 + a03_02 + a08_02 + a09_02 + a10_02 + a11_02;
v02Saida   = a02_07 + a02_12;
v02Entrada = v02Saida;
v02Entrada >= 1;


v03Entrada = a08_03 + a09_03 + a11_03;
v03Saida   = a03_02 + a03_07 + a03_10 + a03_12;
v03Entrada = v03Saida;
v03Entrada >= 1;


v04Entrada = a11_04;
v04Saida   = a04_01 + a04_02 + a04_06 + a04_07 + a04_10 + a04_12;
v04Entrada = v04Saida;
v04Entrada >= 1;


v06Entrada = a04_06 + a08_06 + a09_06 + a11_06;
v06Saida   = a06_07 + a06_12;
v06Entrada = v06Saida;
v06Entrada >= 1;


v07Entrada = a01_07 + a02_07 + a03_07 + a04_07 + a06_07 + a08_07 + a09_07 + a10_07 + a11_07;
v07Saida   = a07_12;
v07Entrada = v07Saida;
v07Entrada >= 1;


v08Entrada = a09_08 + a11_08;
v08Saida   = a08_01 + a08_02 + a08_03 + a08_06 + a08_07 + a08_10 + a08_12;
v08Entrada = v08Saida;
v08Entrada >= 1;


v09Entrada = a11_09;
v09Saida   = a09_01 + a09_02 + a09_03 + a09_06 + a09_07 + a09_08 + a09_10 + a09_12;
v09Entrada = v09Saida;
v09Entrada >= 1;


v10Entrada = a03_10 + a04_10 + a08_10 + a09_10 + a11_10;
v10Saida   = a10_02 + a10_07 + a10_12;
v10Entrada = v10Saida;
v10Entrada >= 1;


//VERTICE INICIAL
v11Saida   = a11_01 + a11_02 + a11_03 + a11_04 + a11_06 + 
             a11_07 + a11_08 + a11_09 + a11_10;
v11Entrada = v11Saida;
v11Entrada >= 1;


//VERTICE FINAL
v12Entrada = a01_12 + a02_12 + a03_12 + a04_12 + a06_12 + 
             a07_12 + a08_12 + a09_12 + a10_12;
v12Entrada = v12Saida;
v12Entrada >= 1;

//--------------------------------------------------------------------






bin a01_02,a01_03,a01_04,a01_06,a01_07,a01_08,a01_09,a01_10,a01_12;
bin a02_01,a02_03,a02_04,a02_06,a02_07,a02_08,a02_09,a02_10,a02_12;
bin a03_01,a03_02,a03_04,a03_06,a03_07,a03_08,a03_09,a03_10,a03_12;
bin a04_01,a04_02,a04_03,a04_06,a04_07,a04_08,a04_09,a04_10,a04_12;
bin a06_01,a06_02,a06_03,a06_04,a06_07,a06_08,a06_09,a06_10,a06_12;
bin a07_01,a07_02,a07_03,a07_04,a07_06,a07_08,a07_09,a07_10,a07_12;
bin a08_01,a08_02,a08_03,a08_04,a08_06,a08_07,a08_09,a08_10,a08_12;
bin a09_01,a09_02,a09_03,a09_04,a09_06,a09_07,a09_08,a09_10,a09_12;
bin a10_01,a10_02,a10_03,a10_04,a10_06,a10_07,a10_08,a10_09,a10_12;
bin a11_01,a11_02,a11_03,a11_04,a11_06,a11_07,a11_08,a11_09,a11_10;                          